20
204
354
true
0.25
46 26 44 4 30 22 28 20 28 9 47 13 25 24 47 44 30 7 21 18
-96 -3 63 70 38 15 -39 3 53 -45 -12 -16 -61 -39 7 -34 -43 78 -71 -40
0 0 0 0 0 29 0 0 -79 80 0 0 0 -40 0 0 52 0 -70 0
0 0 0 0 0 0 0 0 -68 0 0 0 0 0 0 0 -41 0 0
0 0 0 0 14 0 0 10 0 0 0 0 0 0 0 0 0 0
0 0 0 -68 0 0 48 0 0 0 0 8 0 33 0 0 0
0 -71 0 0 0 0 -25 -1 0 0 0 0 0 0 0 0
0 0 0 0 0 -16 100 -62 0 -83 0 0 0 0 0
0 0 0 0 -93 0 0 0 0 0 -84 0 0 0
0 0 0 0 0 -58 0 0 0 -92 0 0 19
0 -55 0 91 0 0 -76 43 0 -87 -53 0
0 0 0 85 0 0 0 0 0 0 0
0 0 7 0 0 -92 0 0 0 -36
0 0 0 0 15 27 0 0 0
0 0 0 0 0 0 0 33
0 -20 0 0 37 0 0
0 0 -38 0 0 31
0 -76 -85 0 0
0 0 64 0
0 0 0
0 0
0 0 0 0 0 0 0 0 -12 -48 0 0 0 58 62 -1 -42 0 0
0 0 -22 0 0 0 0 0 0 0 0 -19 82 0 -25 -84 -21 0
0 19 0 0 75 0 0 0 0 0 0 0 0 0 0 0 0
0 0 0 0 0 0 1 0 52 0 18 -83 0 -35 -60 0
0 0 0 0 0 0 0 0 0 45 0 0 0 0 0
0 12 -11 0 0 0 -35 0 0 0 12 0 0 0
0 71 12 0 0 0 0 0 18 0 0 0 0
0 0 0 0 0 -18 -85 0 0 0 0 0
0 0 -25 0 -55 0 0 0 0 0 0
0 0 36 15 0 0 0 0 0 0
0 0 0 0 0 -57 0 0 45
0 45 0 0 0 0 16 0
0 0 8 0 0 0 0
0 0 0 0 0 0
0 -61 -75 0 -21
0 -66 0 0
0 0 0
0 0
0
0 0 0 0 0 99 -30 0 -55 81 0 0 -3 0 0 0 0 0
0 0 0 0 -20 0 0 0 0 11 -89 60 0 0 0 0 0
0 -98 0 0 -20 -6 0 0 0 0 39 0 15 0 -22 -16
0 0 0 0 0 0 0 -5 0 0 -85 28 0 -75 0
0 0 0 0 -36 0 6 0 0 0 0 0 0 0
0 0 0 0 49 0 0 0 0 41 0 0 0
0 8 0 0 0 0 -38 0 0 0 -98 0
0 0 0 94 -93 0 0 -83 0 0 0
0 0 0 0 0 24 0 0 0 0
0 0 0 -92 0 0 0 0 32
0 -65 0 0 0 0 0 0
0 12 0 0 0 0 0
0 0 -63 0 -14 0
0 0 0 0 0
0 67 0 0
0 0 -25
0 0
0
0 0 0 0 80 0 0 0 7 -52 0 -94 0 0 -91 0 0
0 -9 0 0 0 0 0 -36 0 0 0 -51 0 0 0 0
0 0 48 -74 0 0 0 -82 0 0 0 0 100 90 0
0 0 0 0 0 0 0 0 0 0 0 0 0 0
0 0 22 0 -25 0 0 0 0 0 0 0 -44
0 26 0 -10 0 0 0 0 0 -63 -74 0
0 0 0 -76 0 0 0 0 -51 0 0
0 0 0 0 0 -91 0 0 0 72
0 0 0 0 0 15 0 0 0
0 0 0 0 60 38 -81 0
0 0 0 0 46 0 0
0 0 -58 0 0 0
0 0 0 0 0
0 0 0 0
0 0 0
0 0
0
0 0 0 0 -30 0 76 0 -41 -24 0 0 32 -17 -95 0
0 0 0 0 0 0 0 0 0 0 0 0 0 0 0
0 0 -42 3 -56 0 0 0 0 49 0 0 0 0
0 0 0 0 95 0 0 0 0 0 0 0 0
0 0 0 0 0 0 0 0 0 -46 0 0
0 -39 0 0 0 0 0 0 -33 0 0
0 0 65 0 0 0 18 67 0 0
0 0 0 -97 0 0 0 0 0
0 0 0 -18 88 0 0 0
0 0 0 -86 -8 84 0
0 0 87 40 0 0
0 0 28 0 0
0 41 -57 0
0 0 21
0 0
0
0 0 23 0 0 0 0 0 -59 0 0 -74 0 0 0
0 70 0 0 1 0 0 0 0 0 0 98 0 0
0 -11 0 0 0 0 -61 0 0 93 -36 9 0
0 -53 0 71 0 0 0 0 -30 0 -42 -19
0 0 0 0 0 0 0 0 0 0 2
0 0 0 0 0 0 -67 0 10 83
0 0 89 0 0 0 0 0 -97
0 0 85 0 0 0 0 0
0 -92 0 17 0 -46 64
0 14 0 0 0 0
0 0 0 0 0
0 0 0 -75
0 90 0
0 0
0
0 0 0 34 0 0 -89 0 0 0 15 0 0 -22
0 0 -47 0 0 0 0 0 0 0 0 84 0
0 0 0 41 0 0 -92 0 -24 -69 0 0
0 0 0 97 0 0 0 0 0 0 0
0 -72 0 0 0 0 0 0 0 0
0 0 0 0 0 0 0 0 0
0 -84 0 39 0 100 0 0
0 -6 0 0 0 0 43
0 0 0 0 0 0
0 0 -75 0 65
0 0 0 -55
0 0 0
0 0
0
0 0 0 0 0 -82 0 0 0 25 0 0 0
0 72 -81 0 -22 0 0 0 -41 0 0 0
0 0 0 0 0 0 0 0 0 0 85
0 0 0 0 67 89 0 0 0 -61
0 0 0 0 0 0 -52 82 0
0 0 0 0 0 0 0 0
0 0 0 68 0 0 -50
0 0 -65 0 0 0
0 0 0 29 66
0 18 0 0
0 -47 0
0 0
0
0 -30 57 0 0 0 92 0 0 0 0 0
0 0 -44 0 0 0 -51 0 0 45 0
0 0 -83 96 0 0 -77 0 0 -73
0 0 0 0 0 0 -32 0 0
0 0 0 0 0 0 0 11
0 0 0 0 0 -14 0
0 0 -35 0 0 -51
0 0 0 63 0
0 0 -52 81
0 0 22
0 -66
0
0 0 -71 58 0 0 0 0 16 0 0
0 0 0 0 0 14 -1 -5 0 0
0 0 0 0 0 0 0 0 0
0 4 -19 0 0 0 0 0
0 0 0 0 0 0 0
0 0 55 0 0 0
0 0 80 0 0
0 96 -51 79
0 0 -53
0 96
0
0 0 0 0 -11 0 0 0 0 33
0 66 0 0 0 0 0 0 0
0 0 0 79 0 0 71 -31
0 0 0 0 -69 0 0
0 -3 0 89 0 0
0 0 0 0 0
0 0 0 0
0 0 0
0 0
0
0 0 56 -30 0 0 0 5 0
0 0 0 0 0 -68 0 0
0 0 0 0 0 0 0
0 0 93 0 -74 0
0 0 0 0 0
0 0 0 -33
0 0 0
0 0
0
0 0 0 0 0 0 0 0
0 0 34 86 0 0 0
0 0 88 0 0 0
0 -42 0 0 0
0 -77 0 97
0 70 0
0 0
0
0 0 -40 0 0 0 0
0 0 0 0 0 0
0 0 -31 0 0
0 4 0 0
0 0 0
0 0
0
0 0 0 0 0 0
0 0 0 0 -49
0 26 -85 0
0 0 0
0 0
0
0 55 0 0 0
0 -58 54 0
0 0 0
0 36
0
0 0 -65 0
0 -33 0
0 0
0
0 0 0
0 0
0
0 0
0
0
-383 -560 -368 102 -415 -432 -161 331 -580 84 -350 466 65 -381 -82 -287 -167 -282 -368 199
-8.326086956521738 -21.53846153846154 -8.363636363636363 25.5 -13.833333333333334 -19.636363636363637 -5.75 16.55 -20.714285714285715 9.333333333333334 -7.446808510638298 35.84615384615385 2.6 -15.875 -1.7446808510638299 -6.5227272727272725 -5.566666666666666 -40.285714285714285 -17.523809523809526 11.055555555555555
